## FHIaims input file generated by critic2. # Edited manually
lattice_vector 2.5022255400       0.0000000000       0.0000000000       
lattice_vector -1.2511127700      2.1669908836       0.0000000000       
lattice_vector 0.0000000000       0.0000000000      15.0000000000       
atom_frac  0.3333333300       0.6666666700       0.5000000000       B 
atom_frac  0.6666666700       0.3333333300       0.5000000000       N 
